\* Problem: SC205 *\

Minimize
 COST: - C0000003

Subject To
 R0000000: + 2 C0000000 + C0000001 + 1.5 C0000002 <= 200
 R0000001: + C0000000 + 2 C0000001 + 1.5 C0000002 <= 100
 R0000002: 0 C0000000 <= 0
 R0000003: + C0000003 - C0000004 = 0
 R0000004: - C0000000 + C0000005 = 0
 R0000005: - C0000001 + C0000006 = 0
 R0000006: - C0000002 + C0000007 = 0
 R0000007: - C0000005 + C0000008 <= 0
 R0000008: - C0000006 + C0000009 <= 0
 R0000009: - C0000007 + C0000010 <= 0
 R0000010: - C0000008 + 2 C0000011 + C0000012 + 1.5 C0000013 <= 200
 R0000011: - C0000009 + C0000011 + 2 C0000012 + 1.5 C0000013 <= 100
 R0000012: + C0000004 - C0000010 <= 0
 R0000013: + 1.1 C0000003 - C0000014 = 0
 R0000014: + C0000004 + C0000014 - C0000015 = 0
 R0000015: - C0000005 - C0000011 + C0000016 = 0
 R0000016: - C0000006 - C0000012 + C0000017 = 0
 R0000017: - C0000007 - C0000013 + C0000018 = 0
 R0000018: - C0000016 + C0000019 <= 0
 R0000019: - C0000017 + C0000020 <= 0
 R0000020: - C0000018 + C0000021 <= 0
 R0000021: - C0000019 + 2 C0000022 + C0000023 + 1.5 C0000024 <= 175
 R0000022: - C0000020 + C0000022 + 2 C0000023 + 1.5 C0000024 <= 75
 R0000023: + C0000015 - C0000021 <= 0
 R0000024: + 1.1 C0000014 - C0000025 <= 0
 R0000025: + C0000015 + C0000025 - C0000026 <= 0
 R0000026: - C0000016 - C0000022 + C0000027 <= 0
 R0000027: - C0000017 - C0000023 + C0000028 <= 0
 R0000028: - C0000018 - C0000024 + C0000029 <= 0
 R0000029: - C0000027 + C0000030 <= 0
 R0000030: - C0000028 + C0000031 <= 0
 R0000031: - C0000029 + C0000032 <= 0
 R0000032: - C0000030 + 2 C0000033 + C0000034 + 1.5 C0000035 <= 200
 R0000033: - C0000031 + C0000033 + 2 C0000034 + 1.5 C0000035 <= 100
 R0000034: + C0000026 - C0000032 <= 0
 R0000035: + 1.1 C0000003 - C0000036 = 0
 R0000036: + C0000004 + C0000036 - C0000037 = 0
 R0000037: - C0000005 - C0000011 + C0000038 = 0
 R0000038: - C0000006 - C0000012 + C0000039 = 0
 R0000039: - C0000007 - C0000013 + C0000040 = 0
 R0000040: - C0000038 + C0000041 <= 0
 R0000041: - C0000039 + C0000042 <= 0
 R0000042: - C0000040 + C0000043 <= 0
 R0000043: - C0000041 + 2 C0000044 + C0000045 + 1.5 C0000046 <= 175
 R0000044: - C0000042 + C0000044 + 2 C0000045 + 1.5 C0000046 <= 78.57
 R0000045: + C0000037 - C0000043 <= 0
 R0000046: + 1.1 C0000036 - C0000047 <= 0
 R0000047: + C0000037 + C0000047 - C0000048 <= 0
 R0000048: - C0000038 - C0000044 + C0000049 <= 0
 R0000049: - C0000039 - C0000045 + C0000050 <= 0
 R0000050: - C0000040 - C0000046 + C0000051 <= 0
 R0000051: - C0000049 + C0000052 <= 0
 R0000052: - C0000050 + C0000053 <= 0
 R0000053: - C0000051 + C0000054 <= 0
 R0000054: - C0000052 + 2 C0000055 + C0000056 + 1.5 C0000057 <= 200
 R0000055: - C0000053 + C0000055 + 2 C0000056 + 1.5 C0000057 <= 100
 R0000056: + C0000048 - C0000054 <= 0
 R0000057: + 1.1 C0000003 - C0000058 = 0
 R0000058: + C0000004 + C0000058 - C0000059 = 0
 R0000059: - C0000005 - C0000011 + C0000060 = 0
 R0000060: - C0000006 - C0000012 + C0000061 = 0
 R0000061: - C0000007 - C0000013 + C0000062 = 0
 R0000062: - C0000060 + C0000063 <= 0
 R0000063: - C0000061 + C0000064 <= 0
 R0000064: - C0000062 + C0000065 <= 0
 R0000065: - C0000063 + 2 C0000066 + C0000067 + 1.5 C0000068 <= 175
 R0000066: - C0000064 + C0000066 + 2 C0000067 + 1.5 C0000068 <= 82.14
 R0000067: + C0000059 - C0000065 <= 0
 R0000068: + 1.1 C0000058 - C0000069 <= 0
 R0000069: + C0000059 + C0000069 - C0000070 <= 0
 R0000070: - C0000060 - C0000066 + C0000071 <= 0
 R0000071: - C0000061 - C0000067 + C0000072 <= 0
 R0000072: - C0000062 - C0000068 + C0000073 <= 0
 R0000073: - C0000071 + C0000074 <= 0
 R0000074: - C0000072 + C0000075 <= 0
 R0000075: - C0000073 + C0000076 <= 0
 R0000076: - C0000074 + 2 C0000077 + C0000078 + 1.5 C0000079 <= 200
 R0000077: - C0000075 + C0000077 + 2 C0000078 + 1.5 C0000079 <= 100
 R0000078: + C0000070 - C0000076 <= 0
 R0000079: + 1.1 C0000003 - C0000080 = 0
 R0000080: + C0000004 + C0000080 - C0000081 = 0
 R0000081: - C0000005 - C0000011 + C0000082 = 0
 R0000082: - C0000006 - C0000012 + C0000083 = 0
 R0000083: - C0000007 - C0000013 + C0000084 = 0
 R0000084: - C0000082 + C0000085 <= 0
 R0000085: - C0000083 + C0000086 <= 0
 R0000086: - C0000084 + C0000087 <= 0
 R0000087: - C0000085 + 2 C0000088 + C0000089 + 1.5 C0000090 <= 175
 R0000088: - C0000086 + C0000088 + 2 C0000089 + 1.5 C0000090 <= 85.71
 R0000089: + C0000081 - C0000087 <= 0
 R0000090: + 1.1 C0000080 - C0000091 <= 0
 R0000091: + C0000081 + C0000091 - C0000092 <= 0
 R0000092: - C0000082 - C0000088 + C0000093 <= 0
 R0000093: - C0000083 - C0000089 + C0000094 <= 0
 R0000094: - C0000084 - C0000090 + C0000095 <= 0
 R0000095: - C0000093 + C0000096 <= 0
 R0000096: - C0000094 + C0000097 <= 0
 R0000097: - C0000095 + C0000098 <= 0
 R0000098: - C0000096 + 2 C0000099 + C0000100 + 1.5 C0000101 <= 200
 R0000099: - C0000097 + C0000099 + 2 C0000100 + 1.5 C0000101 <= 100
 R0000100: + C0000092 - C0000098 <= 0
 R0000101: + 1.1 C0000003 - C0000102 = 0
 R0000102: + C0000004 + C0000102 - C0000103 = 0
 R0000103: - C0000005 - C0000011 + C0000104 = 0
 R0000104: - C0000006 - C0000012 + C0000105 = 0
 R0000105: - C0000007 - C0000013 + C0000106 = 0
 R0000106: - C0000104 + C0000107 <= 0
 R0000107: - C0000105 + C0000108 <= 0
 R0000108: - C0000106 + C0000109 <= 0
 R0000109: - C0000107 + 2 C0000110 + C0000111 + 1.5 C0000112 <= 175
 R0000110: - C0000108 + C0000110 + 2 C0000111 + 1.5 C0000112 <= 89.28
 R0000111: + C0000103 - C0000109 <= 0
 R0000112: + 1.1 C0000102 - C0000113 <= 0
 R0000113: + C0000103 + C0000113 - C0000114 <= 0
 R0000114: - C0000104 - C0000110 + C0000115 <= 0
 R0000115: - C0000105 - C0000111 + C0000116 <= 0
 R0000116: - C0000106 - C0000112 + C0000117 <= 0
 R0000117: - C0000115 + C0000118 <= 0
 R0000118: - C0000116 + C0000119 <= 0
 R0000119: - C0000117 + C0000120 <= 0
 R0000120: - C0000118 + 2 C0000121 + C0000122 + 1.5 C0000123 <= 200
 R0000121: - C0000119 + C0000121 + 2 C0000122 + 1.5 C0000123 <= 100
 R0000122: + C0000114 - C0000120 <= 0
 R0000123: + 1.1 C0000003 - C0000124 = 0
 R0000124: + C0000004 + C0000124 - C0000125 = 0
 R0000125: - C0000005 - C0000011 + C0000126 = 0
 R0000126: - C0000006 - C0000012 + C0000127 = 0
 R0000127: - C0000007 - C0000013 + C0000128 = 0
 R0000128: - C0000126 + C0000129 <= 0
 R0000129: - C0000127 + C0000130 <= 0
 R0000130: - C0000128 + C0000131 <= 0
 R0000131: - C0000129 + 2 C0000132 + C0000133 + 1.5 C0000134 <= 175
 R0000132: - C0000130 + C0000132 + 2 C0000133 + 1.5 C0000134 <= 92.85
 R0000133: + C0000125 - C0000131 <= 0
 R0000134: + 1.1 C0000124 - C0000135 <= 0
 R0000135: + C0000125 + C0000135 - C0000136 <= 0
 R0000136: - C0000126 - C0000132 + C0000137 <= 0
 R0000137: - C0000127 - C0000133 + C0000138 <= 0
 R0000138: - C0000128 - C0000134 + C0000139 <= 0
 R0000139: - C0000137 + C0000140 <= 0
 R0000140: - C0000138 + C0000141 <= 0
 R0000141: - C0000139 + C0000142 <= 0
 R0000142: - C0000140 + 2 C0000143 + C0000144 + 1.5 C0000145 <= 200
 R0000143: - C0000141 + C0000143 + 2 C0000144 + 1.5 C0000145 <= 100
 R0000144: + C0000136 - C0000142 <= 0
 R0000145: + 1.1 C0000003 - C0000146 = 0
 R0000146: + C0000004 + C0000146 - C0000147 = 0
 R0000147: - C0000005 - C0000011 + C0000148 = 0
 R0000148: - C0000006 - C0000012 + C0000149 = 0
 R0000149: - C0000007 - C0000013 + C0000150 = 0
 R0000150: - C0000148 + C0000151 <= 0
 R0000151: - C0000149 + C0000152 <= 0
 R0000152: - C0000150 + C0000153 <= 0
 R0000153: - C0000151 + 2 C0000154 + C0000155 + 1.5 C0000156 <= 175
 R0000154: - C0000152 + C0000154 + 2 C0000155 + 1.5 C0000156 <= 96.42
 R0000155: + C0000147 - C0000153 <= 0
 R0000156: + 1.1 C0000146 - C0000157 <= 0
 R0000157: + C0000147 + C0000157 - C0000158 <= 0
 R0000158: - C0000148 - C0000154 + C0000159 <= 0
 R0000159: - C0000149 - C0000155 + C0000160 <= 0
 R0000160: - C0000150 - C0000156 + C0000161 <= 0
 R0000161: - C0000159 + C0000162 <= 0
 R0000162: - C0000160 + C0000163 <= 0
 R0000163: - C0000161 + C0000164 <= 0
 R0000164: - C0000162 + 2 C0000165 + C0000166 + 1.5 C0000167 <= 200
 R0000165: - C0000163 + C0000165 + 2 C0000166 + 1.5 C0000167 <= 100
 R0000166: + C0000158 - C0000164 <= 0
 R0000167: + 1.1 C0000003 - C0000168 = 0
 R0000168: + C0000004 + C0000168 - C0000169 = 0
 R0000169: - C0000005 - C0000011 + C0000170 = 0
 R0000170: - C0000006 - C0000012 + C0000171 = 0
 R0000171: - C0000007 - C0000013 + C0000172 = 0
 R0000172: - C0000170 + C0000173 <= 0
 R0000173: - C0000171 + C0000174 <= 0
 R0000174: - C0000172 + C0000175 <= 0
 R0000175: - C0000173 + 2 C0000176 + C0000177 + 1.5 C0000178 <= 175
 R0000176: - C0000174 + C0000176 + 2 C0000177 + 1.5 C0000178 <= 100
 R0000177: + C0000169 - C0000175 <= 0
 R0000178: + 1.1 C0000168 - C0000179 <= 0
 R0000179: + C0000169 + C0000179 - C0000180 <= 0
 R0000180: - C0000170 - C0000176 + C0000181 <= 0
 R0000181: - C0000171 - C0000177 + C0000182 <= 0
 R0000182: - C0000172 - C0000178 + C0000183 <= 0
 R0000183: - C0000181 + C0000184 <= 0
 R0000184: - C0000182 + C0000185 <= 0
 R0000185: - C0000183 + C0000186 <= 0
 R0000186: - C0000184 + 2 C0000187 + C0000188 + 1.5 C0000189 <= 200
 R0000187: - C0000185 + C0000187 + 2 C0000188 + 1.5 C0000189 <= 100
 R0000188: + C0000180 - C0000186 <= 0
 R0000189: + 1.1 C0000003 - C0000190 = 0
 R0000190: + C0000004 + C0000190 - C0000191 = 0
 R0000191: - C0000005 - C0000011 + C0000192 = 0
 R0000192: - C0000006 - C0000012 + C0000193 = 0
 R0000193: - C0000007 - C0000013 + C0000194 = 0
 R0000194: - C0000192 + C0000195 <= 0
 R0000195: - C0000193 + C0000196 <= 0
 R0000196: - C0000194 + C0000197 <= 0
 R0000197: - C0000195 + 2 C0000198 + C0000199 + 1.5 C0000200 <= 183.33
 R0000198: - C0000196 + C0000198 + 2 C0000199 + 1.5 C0000200 <= 75
 R0000199: + C0000191 - C0000197 <= 0
 R0000200: + 1.1 C0000190 - C0000201 <= 0
 R0000201: + C0000191 + C0000201 - C0000202 <= 0
 R0000202: - C0000192 - C0000198 + C0000203 <= 0
 R0000203: - C0000193 - C0000199 + C0000204 <= 0
 R0000204: - C0000194 - C0000200 + C0000205 <= 0
 R0000205: - C0000203 + C0000206 <= 0
 R0000206: - C0000204 + C0000207 <= 0
 R0000207: - C0000205 + C0000208 <= 0
 R0000208: - C0000206 + 2 C0000209 + C0000210 + 1.5 C0000211 <= 200
 R0000209: - C0000207 + C0000209 + 2 C0000210 + 1.5 C0000211 <= 100
 R0000210: + C0000202 - C0000208 <= 0
 R0000211: + 1.1 C0000003 - C0000212 = 0
 R0000212: + C0000004 + C0000212 - C0000213 = 0
 R0000213: - C0000005 - C0000011 + C0000214 = 0
 R0000214: - C0000006 - C0000012 + C0000215 = 0
 R0000215: - C0000007 - C0000013 + C0000216 = 0
 R0000216: - C0000214 + C0000217 <= 0
 R0000217: - C0000215 + C0000218 <= 0
 R0000218: - C0000216 + C0000219 <= 0
 R0000219: - C0000217 + 2 C0000220 + C0000221 + 1.5 C0000222 <= 183.33
 R0000220: - C0000218 + C0000220 + 2 C0000221 + 1.5 C0000222 <= 78.57
 R0000221: + C0000213 - C0000219 <= 0
 R0000222: + 1.1 C0000212 - C0000223 <= 0
 R0000223: + C0000213 + C0000223 - C0000224 <= 0
 R0000224: - C0000214 - C0000220 + C0000225 <= 0
 R0000225: - C0000215 - C0000221 + C0000226 <= 0
 R0000226: - C0000216 - C0000222 + C0000227 <= 0
 R0000227: - C0000225 + C0000228 <= 0
 R0000228: - C0000226 + C0000229 <= 0
 R0000229: - C0000227 + C0000230 <= 0
 R0000230: - C0000228 + 2 C0000231 + C0000232 + 1.5 C0000233 <= 200
 R0000231: - C0000229 + C0000231 + 2 C0000232 + 1.5 C0000233 <= 100
 R0000232: + C0000224 - C0000230 <= 0
 R0000233: + 1.1 C0000003 - C0000234 = 0
 R0000234: + C0000004 + C0000234 - C0000235 = 0
 R0000235: - C0000005 - C0000011 + C0000236 = 0
 R0000236: - C0000006 - C0000012 + C0000237 = 0
 R0000237: - C0000007 - C0000013 + C0000238 = 0
 R0000238: - C0000236 + C0000239 <= 0
 R0000239: - C0000237 + C0000240 <= 0
 R0000240: - C0000238 + C0000241 <= 0
 R0000241: - C0000239 + 2 C0000242 + C0000243 + 1.5 C0000244 <= 183.33
 R0000242: - C0000240 + C0000242 + 2 C0000243 + 1.5 C0000244 <= 82.14
 R0000243: + C0000235 - C0000241 <= 0
 R0000244: + 1.1 C0000234 - C0000245 <= 0
 R0000245: + C0000235 + C0000245 - C0000246 <= 0
 R0000246: - C0000236 - C0000242 + C0000247 <= 0
 R0000247: - C0000237 - C0000243 + C0000248 <= 0
 R0000248: - C0000238 - C0000244 + C0000249 <= 0
 R0000249: - C0000247 + C0000250 <= 0
 R0000250: - C0000248 + C0000251 <= 0
 R0000251: - C0000249 + C0000252 <= 0
 R0000252: - C0000250 + 2 C0000253 + C0000254 + 1.5 C0000255 <= 200
 R0000253: - C0000251 + C0000253 + 2 C0000254 + 1.5 C0000255 <= 100
 R0000254: + C0000246 - C0000252 <= 0
 R0000255: + 1.1 C0000003 - C0000256 = 0
 R0000256: + C0000004 + C0000256 - C0000257 = 0
 R0000257: - C0000005 - C0000011 + C0000258 = 0
 R0000258: - C0000006 - C0000012 + C0000259 = 0
 R0000259: - C0000007 - C0000013 + C0000260 = 0
 R0000260: - C0000258 + C0000261 <= 0
 R0000261: - C0000259 + C0000262 <= 0
 R0000262: - C0000260 + C0000263 <= 0
 R0000263: - C0000261 + 2 C0000264 + C0000265 + 1.5 C0000266 <= 183.33
 R0000264: - C0000262 + C0000264 + 2 C0000265 + 1.5 C0000266 <= 85.71
 R0000265: + C0000257 - C0000263 <= 0
 R0000266: + 1.1 C0000256 - C0000267 <= 0
 R0000267: + C0000257 + C0000267 - C0000268 <= 0
 R0000268: - C0000258 - C0000264 + C0000269 <= 0
 R0000269: - C0000259 - C0000265 + C0000270 <= 0
 R0000270: - C0000260 - C0000266 + C0000271 <= 0
 R0000271: - C0000269 + C0000272 <= 0
 R0000272: - C0000270 + C0000273 <= 0
 R0000273: - C0000271 + C0000274 <= 0
 R0000274: - C0000272 + 2 C0000275 + C0000276 + 1.5 C0000277 <= 200
 R0000275: - C0000273 + C0000275 + 2 C0000276 + 1.5 C0000277 <= 100
 R0000276: + C0000268 - C0000274 <= 0
 R0000277: + 1.1 C0000003 - C0000278 = 0
 R0000278: + C0000004 + C0000278 - C0000279 = 0
 R0000279: - C0000005 - C0000011 + C0000280 = 0
 R0000280: - C0000006 - C0000012 + C0000281 = 0
 R0000281: - C0000007 - C0000013 + C0000282 = 0
 R0000282: - C0000280 + C0000283 <= 0
 R0000283: - C0000281 + C0000284 <= 0
 R0000284: - C0000282 + C0000285 <= 0
 R0000285: - C0000283 + 2 C0000286 + C0000287 + 1.5 C0000288 <= 183.33
 R0000286: - C0000284 + C0000286 + 2 C0000287 + 1.5 C0000288 <= 89.28
 R0000287: + C0000279 - C0000285 <= 0
 R0000288: + 1.1 C0000278 - C0000289 <= 0
 R0000289: + C0000279 + C0000289 - C0000290 <= 0
 R0000290: - C0000280 - C0000286 + C0000291 <= 0
 R0000291: - C0000281 - C0000287 + C0000292 <= 0
 R0000292: - C0000282 - C0000288 + C0000293 <= 0
 R0000293: - C0000291 + C0000294 <= 0
 R0000294: - C0000292 + C0000295 <= 0
 R0000295: - C0000293 + C0000296 <= 0
 R0000296: - C0000294 + 2 C0000297 + C0000298 + 1.5 C0000299 <= 200
 R0000297: - C0000295 + C0000297 + 2 C0000298 + 1.5 C0000299 <= 100
 R0000298: + C0000290 - C0000296 <= 0
 R0000299: + 1.1 C0000003 - C0000300 = 0
 R0000300: + C0000004 + C0000300 - C0000301 = 0
 R0000301: - C0000005 - C0000011 + C0000302 = 0
 R0000302: - C0000006 - C0000012 + C0000303 = 0
 R0000303: - C0000007 - C0000013 + C0000304 = 0
 R0000304: - C0000302 + C0000305 <= 0
 R0000305: - C0000303 + C0000306 <= 0
 R0000306: - C0000304 + C0000307 <= 0
 R0000307: - C0000305 + 2 C0000308 + C0000309 + 1.5 C0000310 <= 183.33
 R0000308: - C0000306 + C0000308 + 2 C0000309 + 1.5 C0000310 <= 92.85
 R0000309: + C0000301 - C0000307 <= 0
 R0000310: + 1.1 C0000300 - C0000311 <= 0
 R0000311: + C0000301 + C0000311 - C0000312 <= 0
 R0000312: - C0000302 - C0000308 + C0000313 <= 0
 R0000313: - C0000303 - C0000309 + C0000314 <= 0
 R0000314: - C0000304 - C0000310 + C0000315 <= 0
 R0000315: - C0000313 + C0000316 <= 0
 R0000316: - C0000314 + C0000317 <= 0
 R0000317: - C0000315 + C0000318 <= 0
 R0000318: - C0000316 + 2 C0000319 + C0000320 + 1.5 C0000321 <= 200
 R0000319: - C0000317 + C0000319 + 2 C0000320 + 1.5 C0000321 <= 100
 R0000320: + C0000312 - C0000318 <= 0
 R0000321: + 1.1 C0000003 - C0000322 = 0
 R0000322: + C0000004 + C0000322 - C0000323 = 0
 R0000323: - C0000005 - C0000011 + C0000324 = 0
 R0000324: - C0000006 - C0000012 + C0000325 = 0
 R0000325: - C0000007 - C0000013 + C0000326 = 0
 R0000326: - C0000324 + C0000327 <= 0
 R0000327: - C0000325 + C0000328 <= 0
 R0000328: - C0000326 + C0000329 <= 0
 R0000329: - C0000327 + 2 C0000330 + C0000331 + 1.5 C0000332 <= 183.33
 R0000330: - C0000328 + C0000330 + 2 C0000331 + 1.5 C0000332 <= 96.42
 R0000331: + C0000323 - C0000329 <= 0
 R0000332: + 1.1 C0000322 - C0000333 <= 0
 R0000333: + C0000323 + C0000333 - C0000334 <= 0
 R0000334: - C0000324 - C0000330 + C0000335 <= 0
 R0000335: - C0000325 - C0000331 + C0000336 <= 0
 R0000336: - C0000326 - C0000332 + C0000337 <= 0
 R0000337: - C0000335 + C0000338 <= 0
 R0000338: - C0000336 + C0000339 <= 0
 R0000339: - C0000337 + C0000340 <= 0
 R0000340: - C0000338 + 2 C0000341 + C0000342 + 1.5 C0000343 <= 200
 R0000341: - C0000339 + C0000341 + 2 C0000342 + 1.5 C0000343 <= 100
 R0000342: + C0000334 - C0000340 <= 0
 R0000343: + 1.1 C0000003 - C0000344 = 0
 R0000344: + C0000004 + C0000344 - C0000345 = 0
 R0000345: - C0000005 - C0000011 + C0000346 = 0
 R0000346: - C0000006 - C0000012 + C0000347 = 0
 R0000347: - C0000007 - C0000013 + C0000348 = 0
 R0000348: - C0000346 + C0000349 <= 0
 R0000349: - C0000347 + C0000350 <= 0
 R0000350: - C0000348 + C0000351 <= 0
 R0000351: - C0000349 + 2 C0000352 + C0000353 + 1.5 C0000354 <= 183.33
 R0000352: - C0000350 + C0000352 + 2 C0000353 + 1.5 C0000354 <= 100
 R0000353: + C0000345 - C0000351 <= 0
 R0000354: + 1.1 C0000344 - C0000355 <= 0
 R0000355: + C0000345 + C0000355 - C0000356 <= 0
 R0000356: - C0000346 - C0000352 + C0000357 <= 0
 R0000357: - C0000347 - C0000353 + C0000358 <= 0
 R0000358: - C0000348 - C0000354 + C0000359 <= 0
 R0000359: - C0000357 + C0000360 <= 0
 R0000360: - C0000358 + C0000361 <= 0
 R0000361: - C0000359 + C0000362 <= 0
 R0000362: - C0000360 + 2 C0000363 + C0000364 + 1.5 C0000365 <= 200
 R0000363: - C0000361 + C0000363 + 2 C0000364 + 1.5 C0000365 <= 100
 R0000364: + C0000356 - C0000362 <= 0
 R0000365: + 1.1 C0000003 - C0000366 = 0
 R0000366: + C0000004 + C0000366 - C0000367 = 0
 R0000367: - C0000005 - C0000011 + C0000368 = 0
 R0000368: - C0000006 - C0000012 + C0000369 = 0
 R0000369: - C0000007 - C0000013 + C0000370 = 0
 R0000370: - C0000368 + C0000371 <= 0
 R0000371: - C0000369 + C0000372 <= 0
 R0000372: - C0000370 + C0000373 <= 0
 R0000373: - C0000371 + 2 C0000374 + C0000375 + 1.5 C0000376 <= 191.67
 R0000374: - C0000372 + C0000374 + 2 C0000375 + 1.5 C0000376 <= 75
 R0000375: + C0000367 - C0000373 <= 0
 R0000376: + 1.1 C0000366 - C0000377 <= 0
 R0000377: + C0000367 + C0000377 - C0000378 <= 0
 R0000378: - C0000368 - C0000374 + C0000379 <= 0
 R0000379: - C0000369 - C0000375 + C0000380 <= 0
 R0000380: - C0000370 - C0000376 + C0000381 <= 0
 R0000381: - C0000379 + C0000382 <= 0
 R0000382: - C0000380 + C0000383 <= 0
 R0000383: - C0000381 + C0000384 <= 0
 R0000384: - C0000382 + 2 C0000385 + C0000386 + 1.5 C0000387 <= 200
 R0000385: - C0000383 + C0000385 + 2 C0000386 + 1.5 C0000387 <= 100
 R0000386: + C0000378 - C0000384 <= 0
 R0000387: + 1.1 C0000003 - C0000388 = 0
 R0000388: + C0000004 + C0000388 - C0000389 = 0
 R0000389: - C0000005 - C0000011 + C0000390 = 0
 R0000390: - C0000006 - C0000012 + C0000391 = 0
 R0000391: - C0000007 - C0000013 + C0000392 = 0
 R0000392: - C0000390 + C0000393 <= 0
 R0000393: - C0000391 + C0000394 <= 0
 R0000394: - C0000392 + C0000395 <= 0
 R0000395: - C0000393 + 2 C0000396 + C0000397 + 1.5 C0000398 <= 191.67
 R0000396: - C0000394 + C0000396 + 2 C0000397 + 1.5 C0000398 <= 78.57
 R0000397: + C0000389 - C0000395 <= 0
 R0000398: + 1.1 C0000388 - C0000399 <= 0
 R0000399: + C0000389 + C0000399 - C0000400 <= 0
 R0000400: - C0000390 - C0000396 + C0000401 <= 0
 R0000401: - C0000391 - C0000397 + C0000402 <= 0
 R0000402: - C0000392 - C0000398 + C0000403 <= 0
 R0000403: - C0000401 + C0000404 <= 0
 R0000404: - C0000402 + C0000405 <= 0
 R0000405: - C0000403 + C0000406 <= 0
 R0000406: - C0000404 + 2 C0000407 + C0000408 + 1.5 C0000409 <= 200
 R0000407: - C0000405 + C0000407 + 2 C0000408 + 1.5 C0000409 <= 100
 R0000408: + C0000400 - C0000406 <= 0
 R0000409: + 1.1 C0000003 - C0000410 = 0
 R0000410: + C0000004 + C0000410 - C0000411 = 0
 R0000411: - C0000005 - C0000011 + C0000412 = 0
 R0000412: - C0000006 - C0000012 + C0000413 = 0
 R0000413: - C0000007 - C0000013 + C0000414 = 0
 R0000414: - C0000412 + C0000415 <= 0
 R0000415: - C0000413 + C0000416 <= 0
 R0000416: - C0000414 + C0000417 <= 0
 R0000417: - C0000415 + 2 C0000418 + C0000419 + 1.5 C0000420 <= 191.67
 R0000418: - C0000416 + C0000418 + 2 C0000419 + 1.5 C0000420 <= 82.14
 R0000419: + C0000411 - C0000417 <= 0
 R0000420: + 1.1 C0000410 - C0000421 <= 0
 R0000421: + C0000411 + C0000421 - C0000422 <= 0
 R0000422: - C0000412 - C0000418 + C0000423 <= 0
 R0000423: - C0000413 - C0000419 + C0000424 <= 0
 R0000424: - C0000414 - C0000420 + C0000425 <= 0
 R0000425: - C0000423 + C0000426 <= 0
 R0000426: - C0000424 + C0000427 <= 0
 R0000427: - C0000425 + C0000428 <= 0
 R0000428: - C0000426 + 2 C0000429 + C0000430 + 1.5 C0000431 <= 200
 R0000429: - C0000427 + C0000429 + 2 C0000430 + 1.5 C0000431 <= 100
 R0000430: + C0000422 - C0000428 <= 0
 R0000431: + 1.1 C0000003 - C0000432 = 0
 R0000432: + C0000004 + C0000432 - C0000433 = 0
 R0000433: - C0000005 - C0000011 + C0000434 = 0
 R0000434: - C0000006 - C0000012 + C0000435 = 0
 R0000435: - C0000007 - C0000013 + C0000436 = 0
 R0000436: - C0000434 + C0000437 <= 0
 R0000437: - C0000435 + C0000438 <= 0
 R0000438: - C0000436 + C0000439 <= 0
 R0000439: - C0000437 + 2 C0000440 + C0000441 + 1.5 C0000442 <= 191.67
 R0000440: - C0000438 + C0000440 + 2 C0000441 + 1.5 C0000442 <= 85.71
 R0000441: + C0000433 - C0000439 <= 0
 R0000442: + 1.1 C0000432 - C0000443 <= 0
 R0000443: + C0000433 + C0000443 - C0000444 <= 0
 R0000444: - C0000434 - C0000440 + C0000445 <= 0
 R0000445: - C0000435 - C0000441 + C0000446 <= 0
 R0000446: - C0000436 - C0000442 + C0000447 <= 0
 R0000447: - C0000445 + C0000448 <= 0
 R0000448: - C0000446 + C0000449 <= 0
 R0000449: - C0000447 + C0000450 <= 0
 R0000450: - C0000448 + 2 C0000451 + C0000452 + 1.5 C0000453 <= 200
 R0000451: - C0000449 + C0000451 + 2 C0000452 + 1.5 C0000453 <= 100
 R0000452: + C0000444 - C0000450 <= 0
 R0000453: + 1.1 C0000003 - C0000454 = 0
 R0000454: + C0000004 + C0000454 - C0000455 = 0
 R0000455: - C0000005 - C0000011 + C0000456 = 0
 R0000456: - C0000006 - C0000012 + C0000457 = 0
 R0000457: - C0000007 - C0000013 + C0000458 = 0
 R0000458: - C0000456 + C0000459 <= 0
 R0000459: - C0000457 + C0000460 <= 0
 R0000460: - C0000458 + C0000461 <= 0
 R0000461: - C0000459 + 2 C0000462 + C0000463 + 1.5 C0000464 <= 191.67
 R0000462: - C0000460 + C0000462 + 2 C0000463 + 1.5 C0000464 <= 89.28
 R0000463: + C0000455 - C0000461 <= 0
 R0000464: + 1.1 C0000454 - C0000465 <= 0
 R0000465: + C0000455 + C0000465 - C0000466 <= 0
 R0000466: - C0000456 - C0000462 + C0000467 <= 0
 R0000467: - C0000457 - C0000463 + C0000468 <= 0
 R0000468: - C0000458 - C0000464 + C0000469 <= 0
 R0000469: - C0000467 + C0000470 <= 0
 R0000470: - C0000468 + C0000471 <= 0
 R0000471: - C0000469 + C0000472 <= 0
 R0000472: - C0000470 + 2 C0000473 + C0000474 + 1.5 C0000475 <= 200
 R0000473: - C0000471 + C0000473 + 2 C0000474 + 1.5 C0000475 <= 100
 R0000474: + C0000466 - C0000472 <= 0
 R0000475: + 1.1 C0000003 - C0000476 = 0
 R0000476: + C0000004 + C0000476 - C0000477 = 0
 R0000477: - C0000005 - C0000011 + C0000478 = 0
 R0000478: - C0000006 - C0000012 + C0000479 = 0
 R0000479: - C0000007 - C0000013 + C0000480 = 0
 R0000480: - C0000478 + C0000481 <= 0
 R0000481: - C0000479 + C0000482 <= 0
 R0000482: - C0000480 + C0000483 <= 0
 R0000483: - C0000481 + 2 C0000484 + C0000485 + 1.5 C0000486 <= 191.67
 R0000484: - C0000482 + C0000484 + 2 C0000485 + 1.5 C0000486 <= 92.85
 R0000485: + C0000477 - C0000483 <= 0
 R0000486: + 1.1 C0000476 - C0000487 <= 0
 R0000487: + C0000477 + C0000487 - C0000488 <= 0
 R0000488: - C0000478 - C0000484 + C0000489 <= 0
 R0000489: - C0000479 - C0000485 + C0000490 <= 0
 R0000490: - C0000480 - C0000486 + C0000491 <= 0
 R0000491: - C0000489 + C0000492 <= 0
 R0000492: - C0000490 + C0000493 <= 0
 R0000493: - C0000491 + C0000494 <= 0
 R0000494: - C0000492 + 2 C0000495 + C0000496 + 1.5 C0000497 <= 200
 R0000495: - C0000493 + C0000495 + 2 C0000496 + 1.5 C0000497 <= 100
 R0000496: + C0000488 - C0000494 <= 0
 R0000497: + 1.1 C0000003 - C0000498 = 0
 R0000498: + C0000004 + C0000498 - C0000499 = 0
 R0000499: - C0000005 - C0000011 + C0000500 = 0
 R0000500: - C0000006 - C0000012 + C0000501 = 0
 R0000501: - C0000007 - C0000013 + C0000502 = 0
 R0000502: - C0000500 + C0000503 <= 0
 R0000503: - C0000501 + C0000504 <= 0
 R0000504: - C0000502 + C0000505 <= 0
 R0000505: - C0000503 + 2 C0000506 + C0000507 + 1.5 C0000508 <= 191.67
 R0000506: - C0000504 + C0000506 + 2 C0000507 + 1.5 C0000508 <= 96.42
 R0000507: + C0000499 - C0000505 <= 0
 R0000508: + 1.1 C0000498 - C0000509 <= 0
 R0000509: + C0000499 + C0000509 - C0000510 <= 0
 R0000510: - C0000500 - C0000506 + C0000511 <= 0
 R0000511: - C0000501 - C0000507 + C0000512 <= 0
 R0000512: - C0000502 - C0000508 + C0000513 <= 0
 R0000513: - C0000511 + C0000514 <= 0
 R0000514: - C0000512 + C0000515 <= 0
 R0000515: - C0000513 + C0000516 <= 0
 R0000516: - C0000514 + 2 C0000517 + C0000518 + 1.5 C0000519 <= 200
 R0000517: - C0000515 + C0000517 + 2 C0000518 + 1.5 C0000519 <= 100
 R0000518: + C0000510 - C0000516 <= 0
 R0000519: + 1.1 C0000003 - C0000520 = 0
 R0000520: + C0000004 + C0000520 - C0000521 = 0
 R0000521: - C0000005 - C0000011 + C0000522 = 0
 R0000522: - C0000006 - C0000012 + C0000523 = 0
 R0000523: - C0000007 - C0000013 + C0000524 = 0
 R0000524: - C0000522 + C0000525 <= 0
 R0000525: - C0000523 + C0000526 <= 0
 R0000526: - C0000524 + C0000527 <= 0
 R0000527: - C0000525 + 2 C0000528 + C0000529 + 1.5 C0000530 <= 191.67
 R0000528: - C0000526 + C0000528 + 2 C0000529 + 1.5 C0000530 <= 100
 R0000529: + C0000521 - C0000527 <= 0
 R0000530: + 1.1 C0000520 - C0000531 <= 0
 R0000531: + C0000521 + C0000531 - C0000532 <= 0
 R0000532: - C0000522 - C0000528 + C0000533 <= 0
 R0000533: - C0000523 - C0000529 + C0000534 <= 0
 R0000534: - C0000524 - C0000530 + C0000535 <= 0
 R0000535: - C0000533 + C0000536 <= 0
 R0000536: - C0000534 + C0000537 <= 0
 R0000537: - C0000535 + C0000538 <= 0
 R0000538: - C0000536 + 2 C0000539 + C0000540 + 1.5 C0000541 <= 200
 R0000539: - C0000537 + C0000539 + 2 C0000540 + 1.5 C0000541 <= 100
 R0000540: + C0000532 - C0000538 <= 0
 R0000541: + 1.1 C0000003 - C0000542 = 0
 R0000542: + C0000004 + C0000542 - C0000543 = 0
 R0000543: - C0000005 - C0000011 + C0000544 = 0
 R0000544: - C0000006 - C0000012 + C0000545 = 0
 R0000545: - C0000007 - C0000013 + C0000546 = 0
 R0000546: - C0000544 + C0000547 <= 0
 R0000547: - C0000545 + C0000548 <= 0
 R0000548: - C0000546 + C0000549 <= 0
 R0000549: - C0000547 + 2 C0000550 + C0000551 + 1.5 C0000552 <= 200
 R0000550: - C0000548 + C0000550 + 2 C0000551 + 1.5 C0000552 <= 75
 R0000551: + C0000543 - C0000549 <= 0
 R0000552: + 1.1 C0000542 - C0000553 <= 0
 R0000553: + C0000543 + C0000553 - C0000554 <= 0
 R0000554: - C0000544 - C0000550 + C0000555 <= 0
 R0000555: - C0000545 - C0000551 + C0000556 <= 0
 R0000556: - C0000546 - C0000552 + C0000557 <= 0
 R0000557: - C0000555 + C0000558 <= 0
 R0000558: - C0000556 + C0000559 <= 0
 R0000559: - C0000557 + C0000560 <= 0
 R0000560: - C0000558 + 2 C0000561 + C0000562 + 1.5 C0000563 <= 200
 R0000561: - C0000559 + C0000561 + 2 C0000562 + 1.5 C0000563 <= 100
 R0000562: + C0000554 - C0000560 <= 0
 R0000563: + 1.1 C0000003 - C0000564 = 0
 R0000564: + C0000004 + C0000564 - C0000565 = 0
 R0000565: - C0000005 - C0000011 + C0000566 = 0
 R0000566: - C0000006 - C0000012 + C0000567 = 0
 R0000567: - C0000007 - C0000013 + C0000568 = 0
 R0000568: - C0000566 + C0000569 <= 0
 R0000569: - C0000567 + C0000570 <= 0
 R0000570: - C0000568 + C0000571 <= 0
 R0000571: - C0000569 + 2 C0000572 + C0000573 + 1.5 C0000574 <= 200
 R0000572: - C0000570 + C0000572 + 2 C0000573 + 1.5 C0000574 <= 78.57
 R0000573: + C0000565 - C0000571 <= 0
 R0000574: + 1.1 C0000564 - C0000575 <= 0
 R0000575: + C0000565 + C0000575 - C0000576 <= 0
 R0000576: - C0000566 - C0000572 + C0000577 <= 0
 R0000577: - C0000567 - C0000573 + C0000578 <= 0
 R0000578: - C0000568 - C0000574 + C0000579 <= 0
 R0000579: - C0000577 + C0000580 <= 0
 R0000580: - C0000578 + C0000581 <= 0
 R0000581: - C0000579 + C0000582 <= 0
 R0000582: - C0000580 + 2 C0000583 + C0000584 + 1.5 C0000585 <= 200
 R0000583: - C0000581 + C0000583 + 2 C0000584 + 1.5 C0000585 <= 100
 R0000584: + C0000576 - C0000582 <= 0
 R0000585: + 1.1 C0000003 - C0000586 = 0
 R0000586: + C0000004 + C0000586 - C0000587 = 0
 R0000587: - C0000005 - C0000011 + C0000588 = 0
 R0000588: - C0000006 - C0000012 + C0000589 = 0
 R0000589: - C0000007 - C0000013 + C0000590 = 0
 R0000590: - C0000588 + C0000591 <= 0
 R0000591: - C0000589 + C0000592 <= 0
 R0000592: - C0000590 + C0000593 <= 0
 R0000593: - C0000591 + 2 C0000594 + C0000595 + 1.5 C0000596 <= 200
 R0000594: - C0000592 + C0000594 + 2 C0000595 + 1.5 C0000596 <= 82.14
 R0000595: + C0000587 - C0000593 <= 0
 R0000596: + 1.1 C0000586 - C0000597 <= 0
 R0000597: + C0000587 + C0000597 - C0000598 <= 0
 R0000598: - C0000588 - C0000594 + C0000599 <= 0
 R0000599: - C0000589 - C0000595 + C0000600 <= 0
 R0000600: - C0000590 - C0000596 + C0000601 <= 0
 R0000601: - C0000599 + C0000602 <= 0
 R0000602: - C0000600 + C0000603 <= 0
 R0000603: - C0000601 + C0000604 <= 0
 R0000604: - C0000602 + 2 C0000605 + C0000606 + 1.5 C0000607 <= 200
 R0000605: - C0000603 + C0000605 + 2 C0000606 + 1.5 C0000607 <= 100
 R0000606: + C0000598 - C0000604 <= 0
 R0000607: + 1.1 C0000003 - C0000608 = 0
 R0000608: + C0000004 + C0000608 - C0000609 = 0
 R0000609: - C0000005 - C0000011 + C0000610 = 0
 R0000610: - C0000006 - C0000012 + C0000611 = 0
 R0000611: - C0000007 - C0000013 + C0000612 = 0
 R0000612: - C0000610 + C0000613 <= 0
 R0000613: - C0000611 + C0000614 <= 0
 R0000614: - C0000612 + C0000615 <= 0
 R0000615: - C0000613 + 2 C0000616 + C0000617 + 1.5 C0000618 <= 200
 R0000616: - C0000614 + C0000616 + 2 C0000617 + 1.5 C0000618 <= 85.71
 R0000617: + C0000609 - C0000615 <= 0
 R0000618: + 1.1 C0000608 - C0000619 <= 0
 R0000619: + C0000609 + C0000619 - C0000620 <= 0
 R0000620: - C0000610 - C0000616 + C0000621 <= 0
 R0000621: - C0000611 - C0000617 + C0000622 <= 0
 R0000622: - C0000612 - C0000618 + C0000623 <= 0
 R0000623: - C0000621 + C0000624 <= 0
 R0000624: - C0000622 + C0000625 <= 0
 R0000625: - C0000623 + C0000626 <= 0
 R0000626: - C0000624 + 2 C0000627 + C0000628 + 1.5 C0000629 <= 200
 R0000627: - C0000625 + C0000627 + 2 C0000628 + 1.5 C0000629 <= 100
 R0000628: + C0000620 - C0000626 <= 0
 R0000629: + 1.1 C0000003 - C0000630 = 0
 R0000630: + C0000004 + C0000630 - C0000631 = 0
 R0000631: - C0000005 - C0000011 + C0000632 = 0
 R0000632: - C0000006 - C0000012 + C0000633 = 0
 R0000633: - C0000007 - C0000013 + C0000634 = 0
 R0000634: - C0000632 + C0000635 <= 0
 R0000635: - C0000633 + C0000636 <= 0
 R0000636: - C0000634 + C0000637 <= 0
 R0000637: - C0000635 + 2 C0000638 + C0000639 + 1.5 C0000640 <= 200
 R0000638: - C0000636 + C0000638 + 2 C0000639 + 1.5 C0000640 <= 89.28
 R0000639: + C0000631 - C0000637 <= 0
 R0000640: + 1.1 C0000630 - C0000641 <= 0
 R0000641: + C0000631 + C0000641 - C0000642 <= 0
 R0000642: - C0000632 - C0000638 + C0000643 <= 0
 R0000643: - C0000633 - C0000639 + C0000644 <= 0
 R0000644: - C0000634 - C0000640 + C0000645 <= 0
 R0000645: - C0000643 + C0000646 <= 0
 R0000646: - C0000644 + C0000647 <= 0
 R0000647: - C0000645 + C0000648 <= 0
 R0000648: - C0000646 + 2 C0000649 + C0000650 + 1.5 C0000651 <= 200
 R0000649: - C0000647 + C0000649 + 2 C0000650 + 1.5 C0000651 <= 100
 R0000650: + C0000642 - C0000648 <= 0
 R0000651: + 1.1 C0000003 - C0000652 = 0
 R0000652: + C0000004 + C0000652 - C0000653 = 0
 R0000653: - C0000005 - C0000011 + C0000654 = 0
 R0000654: - C0000006 - C0000012 + C0000655 = 0
 R0000655: - C0000007 - C0000013 + C0000656 = 0
 R0000656: - C0000654 + C0000657 <= 0
 R0000657: - C0000655 + C0000658 <= 0
 R0000658: - C0000656 + C0000659 <= 0
 R0000659: - C0000657 + 2 C0000660 + C0000661 + 1.5 C0000662 <= 200
 R0000660: - C0000658 + C0000660 + 2 C0000661 + 1.5 C0000662 <= 92.85
 R0000661: + C0000653 - C0000659 <= 0
 R0000662: + 1.1 C0000652 - C0000663 <= 0
 R0000663: + C0000653 + C0000663 - C0000664 <= 0
 R0000664: - C0000654 - C0000660 + C0000665 <= 0
 R0000665: - C0000655 - C0000661 + C0000666 <= 0
 R0000666: - C0000656 - C0000662 + C0000667 <= 0
 R0000667: - C0000665 + C0000668 <= 0
 R0000668: - C0000666 + C0000669 <= 0
 R0000669: - C0000667 + C0000670 <= 0
 R0000670: - C0000668 + 2 C0000671 + C0000672 + 1.5 C0000673 <= 200
 R0000671: - C0000669 + C0000671 + 2 C0000672 + 1.5 C0000673 <= 100
 R0000672: + C0000664 - C0000670 <= 0
 R0000673: + 1.1 C0000003 - C0000674 = 0
 R0000674: + C0000004 + C0000674 - C0000675 = 0
 R0000675: - C0000005 - C0000011 + C0000676 = 0
 R0000676: - C0000006 - C0000012 + C0000677 = 0
 R0000677: - C0000007 - C0000013 + C0000678 = 0
 R0000678: - C0000676 + C0000679 <= 0
 R0000679: - C0000677 + C0000680 <= 0
 R0000680: - C0000678 + C0000681 <= 0
 R0000681: - C0000679 + 2 C0000682 + C0000683 + 1.5 C0000684 <= 200
 R0000682: - C0000680 + C0000682 + 2 C0000683 + 1.5 C0000684 <= 96.42
 R0000683: + C0000675 - C0000681 <= 0
 R0000684: + 1.1 C0000674 - C0000685 <= 0
 R0000685: + C0000675 + C0000685 - C0000686 <= 0
 R0000686: - C0000676 - C0000682 + C0000687 <= 0
 R0000687: - C0000677 - C0000683 + C0000688 <= 0
 R0000688: - C0000678 - C0000684 + C0000689 <= 0
 R0000689: - C0000687 + C0000690 <= 0
 R0000690: - C0000688 + C0000691 <= 0
 R0000691: - C0000689 + C0000692 <= 0
 R0000692: - C0000690 + 2 C0000693 + C0000694 + 1.5 C0000695 <= 200
 R0000693: - C0000691 + C0000693 + 2 C0000694 + 1.5 C0000695 <= 100
 R0000694: + C0000686 - C0000692 <= 0
 R0000695: + 1.1 C0000003 - C0000696 = 0
 R0000696: + C0000004 + C0000696 - C0000697 = 0
 R0000697: - C0000005 - C0000011 + C0000698 = 0
 R0000698: - C0000006 - C0000012 + C0000699 = 0
 R0000699: - C0000007 - C0000013 + C0000700 = 0
 R0000700: - C0000698 + C0000701 <= 0
 R0000701: - C0000699 + C0000702 <= 0
 R0000702: - C0000700 + C0000703 <= 0
 R0000703: - C0000701 + 2 C0000704 + C0000705 + 1.5 C0000706 <= 200
 R0000704: - C0000702 + C0000704 + 2 C0000705 + 1.5 C0000706 <= 100
 R0000705: + C0000697 - C0000703 <= 0
 R0000706: + 1.1 C0000696 - C0000707 <= 0
 R0000707: + C0000697 + C0000707 - C0000708 <= 0
 R0000708: - C0000698 - C0000704 + C0000709 <= 0
 R0000709: - C0000699 - C0000705 + C0000710 <= 0
 R0000710: - C0000700 - C0000706 + C0000711 <= 0
 R0000711: - C0000709 + C0000712 <= 0
 R0000712: - C0000710 + C0000713 <= 0
 R0000713: - C0000711 + C0000714 <= 0
 R0000714: - C0000712 + 2 C0000715 + C0000716 + 1.5 C0000717 <= 200
 R0000715: - C0000713 + C0000715 + 2 C0000716 + 1.5 C0000717 <= 100
 R0000716: + C0000708 - C0000714 <= 0

End
